(declare-const X String)
; hirmvtg\x2fggqh\.kqh\w+whenu\x2Ecom\w+weatherHost\x3AUser-Agent\x3A
(assert (str.in_re X (re.++ (str.to_re "hirmvtg/ggqh.kqh\u{1b}") (re.+ (re.union (re.range "0" "9") (re.range "A" "Z") (re.range "a" "z") (str.to_re "_"))) (str.to_re "whenu.com\u{13}") (re.+ (re.union (re.range "0" "9") (re.range "A" "Z") (re.range "a" "z") (str.to_re "_"))) (str.to_re "weatherHost:User-Agent:\u{a}"))))
(check-sat)
